135
0 50 90 32 2 129 113 15 105 64 
29 109 18 124 108 104 8 38 56 78 
100 19 91 31 116 49 107 62 14 76 
57 33 3 16 34 131 27 40 101 67 
26 123 112 39 20 83 30 41 96 25 
46 12 79 81 115 21 130 44 55 121 
45 74 103 89 48 24 94 84 53 63 
68 98 111 132 77 47 11 70 127 1 
71 134 95 119 114 51 4 122 13 43 
9 23 69 102 7 128 118 61 17 75 
92 58 106 72 82 86 54 60 80 120 
97 10 85 52 125 6 5 99 42 59 
126 22 110 117 73 66 65 37 133 36 
87 28 93 88 35 
